# SCIP version 4.0.1.3

# if TRUE then try to update knapsack constraints to cardinality constraints
# [type: bool, advanced: TRUE, range: {TRUE,FALSE}, default: FALSE]
constraints/knapsack/upgdcardinality = TRUE
